Version identifier: 20.1.0.0 | 2020-11-10 | 9bedb6d68
Tried aggregator 2 times.
MIP Presolve eliminated 962 rows and 465 columns.
MIP Presolve modified 2374 coefficients.
Aggregator did 117 substitutions.
Reduced MIP has 1330 rows, 1083 columns, and 4361 nonzeros.
Reduced MIP has 218 binaries, 865 generals, 0 SOSs, and 0 indicators.
Presolve time = 0.01 sec. (5.36 ticks)
Found incumbent of value 2081.000000 after 0.03 sec. (10.89 ticks)
Probing fixed 28 vars, tightened 341 bounds.
Probing time = 0.00 sec. (0.84 ticks)
Tried aggregator 2 times.
Detecting symmetries...
MIP Presolve eliminated 532 rows and 58 columns.
MIP Presolve modified 133 coefficients.
Aggregator did 24 substitutions.
Reduced MIP has 774 rows, 1001 columns, and 2525 nonzeros.
Reduced MIP has 317 binaries, 684 generals, 0 SOSs, and 0 indicators.
Presolve time = 0.01 sec. (3.61 ticks)
Probing time = 0.00 sec. (0.22 ticks)
Clique table members: 11.
MIP emphasis: balance optimality and feasibility.
MIP search method: dynamic search.
Parallel mode: deterministic, using up to 24 threads.
Root relaxation solution time = 0.01 sec. (2.29 ticks)

        Nodes                                         Cuts/
   Node  Left     Objective  IInf  Best Integer    Best Bound    ItCnt     Gap

*     0+    0                         2081.0000        0.0000           100.00%
*     0+    0                           67.0000        0.0000           100.00%
      0     0        0.0000    45       67.0000        0.0000      271  100.00%
*     0+    0                           30.0000        0.0000           100.00%
      0     0        0.0000    90       30.0000     Cuts: 124      408  100.00%
      0     0        0.0435   137       30.0000      Cuts: 81      571   99.86%
      0     0        0.6670   291       30.0000     Cuts: 108      845   97.78%
      0     0        1.0000   108       30.0000      Cuts: 73     1061   96.67%
      0     0        1.0705   302       30.0000      Cuts: 41     1320   96.43%
*     0+    0                           18.0000        1.0705            94.05%
      0     0        cutoff             18.0000       18.0000     1424    0.00%
Elapsed time = 0.75 sec. (97.38 ticks, tree = 0.01 MB, solutions = 4)

Cover cuts applied:  1
Implied bound cuts applied:  63
Flow cuts applied:  23
Mixed integer rounding cuts applied:  28
Zero-half cuts applied:  106
Lift and project cuts applied:  7
Gomory fractional cuts applied:  3

Root node processing (before b&c):
  Real time             =    0.75 sec. (97.48 ticks)
Parallel b&c, 24 threads:
  Real time             =    0.00 sec. (0.00 ticks)
  Sync time (average)   =    0.00 sec.
  Wait time (average)   =    0.00 sec.
                          ------------
Total (root+branch&cut) =    0.75 sec. (97.48 ticks)

Solution status = Optimal
Solution LB = 18
Solution UB = 18
Runtime = 0.757581 seconds
	Command being timed: "/home/min/git_repos/CS598MEBProject/CNT-ILP/build/cnt -s 2 ./output/k8_n15/simC_c1_k8_n15_u3_s2_del04.input-right.cnp"
	User time (seconds): 12.04
	System time (seconds): 0.05
	Percent of CPU this job got: 1553%
	Elapsed (wall clock) time (h:mm:ss or m:ss): 0:00.77
	Average shared text size (kbytes): 0
	Average unshared data size (kbytes): 0
	Average stack size (kbytes): 0
	Average total size (kbytes): 0
	Maximum resident set size (kbytes): 97188
	Average resident set size (kbytes): 0
	Major (requiring I/O) page faults: 0
	Minor (reclaiming a frame) page faults: 21454
	Voluntary context switches: 4715
	Involuntary context switches: 1750
	Swaps: 0
	File system inputs: 0
	File system outputs: 16
	Socket messages sent: 0
	Socket messages received: 0
	Signals delivered: 0
	Page size (bytes): 4096
	Exit status: 0
